197 3925
2 3 4 5 6 7 8 9 10 11 12 13 14 15 16 33 34 35 36 37 38 39 40 41 42 43 44 45 46 47 48 49 50 51 52 53 54 55 56 57 59 60 62 63 64 65 67 68 71 73 74 75 77 80 83 85 87 88 90 91 93 96 99 102 104 107 108 109 111 112 114 117 118 120 121 125 126 127 128 129 130 131 135 136 137 138 139 142 144 145 146 147 148 149 150 151 152 153 154 157 160 161 162 163 164 165 166 169 173 174 176 177 178 181 184 187 189 191 192 195 197
1 3 4 5 6 7 8 9 10 11 12 13 14 15 16 33 34 35 36 37 38 39 40 41 42 43 44 45 46 47 48 49 50 51 52 53 54 55 56 57 59 60 62 63 64 65 67 68 71 73 74 75 77 80 83 85 87 88 90 91 93 96 99 102 104 107 108 109 111 112 114 117 118 120 121 125 126 127 128 129 130 131 135 136 137 138 139 142 144 145 146 147 148 149 150 151 152 153 154 157 160 161 162 163 164 165 166 169 173 174 176 177 178 181 184 187 189 191 192 195 197
1 2 4 5 6 7 8 9 10 11 12 13 14 15 16 34 39 40 41 42 43 44 45 46 47 48 49 50 51 52 53 54 55 56 57 59 60 62 63 64 65 67 68 71 74 75 80 121 125 126 127 128 129 130 131 135 136 137 138 139 145 147 149 150 151 153 154 160 161 162 163 164 165 166 173 174 176 177 178 191 192
1 2 3 5 6 7 8 9 10 11 12 13 14 15 16 34 47 48 49 50 51 52 53 54 55 65 67 68 71 74 75 80 121 125 126 127 128 129 130 131 135 136 137 138 139 145 147 149 150 151 153 154 160 161 162 163 164 165 166 173 174 176 177 178 191 192
1 2 3 4 6 7 8 9 10 11 12 13 14 15 16 34 39 47 48 49 50 51 52 53 54 55 65 67 68 71 74 75 80 121 125 126 127 128 129 130 131 135 136 137 138 139 145 147 149 150 151 153 154 160 161 162 163 164 165 166 173 174 176 177 178 191 192
1 2 3 4 5 7 8 9 10 11 12 13 14 15 16 34 39 40 47 48 49 50 51 52 53 54 55 65 67 68 71 74 75 80 121 125 126 127 128 129 130 131 135 136 137 138 139 145 147 149 150 151 153 154 160 161 162 163 164 165 166 173 174 176 177 178 191 192
1 2 3 4 5 6 8 9 10 11 12 13 14 15 16 34 39 40 41 47 48 49 50 51 52 53 54 55 65 67 68 71 74 75 80 121 125 126 127 128 129 130 131 135 136 137 138 139 145 147 149 150 151 153 154 160 161 162 163 164 165 166 173 174 176 177 178 191 192
1 2 3 4 5 6 7 9 10 11 12 13 14 15 16 34 39 40 41 42 47 48 49 50 51 52 53 54 55 65 67 68 71 74 75 80 121 125 126 127 128 129 130 131 135 136 137 138 139 145 147 149 150 151 153 154 160 161 162 163 164 165 166 173 174 176 177 178 191 192
1 2 3 4 5 6 7 8 10 11 12 13 14 15 16 34 39 40 41 42 43 47 48 49 50 51 52 53 54 55 65 67 68 71 74 75 80 121 125 126 127 128 129 130 131 135 136 137 138 139 145 147 149 150 151 153 154 160 161 162 163 164 165 166 173 174 176 177 178 191 192
1 2 3 4 5 6 7 8 9 11 12 13 14 15 16 34 39 40 41 42 43 44 47 48 49 50 51 52 53 54 55 65 67 68 71 74 75 80 121 125 126 127 128 129 130 131 135 136 137 138 139 145 147 149 150 151 153 154 160 161 162 163 164 165 166 173 174 176 177 178 191 192
1 2 3 4 5 6 7 8 9 10 12 13 14 15 16 34 39 40 41 42 43 44 45 46 47 48 49 50 51 52 53 54 55 65 67 68 71 74 75 80 121 125 126 127 128 129 130 131 135 136 137 138 139 145 147 149 150 151 153 154 160 161 162 163 164 165 166 173 174 176 177 178 191 192
1 2 3 4 5 6 7 8 9 10 11 13 14 15 16 34 39 40 41 42 43 44 45 46 47 48 49 50 51 52 53 54 55 56 57 65 67 68 71 74 75 80 121 125 126 127 128 129 130 131 135 136 137 138 139 145 147 149 150 151 153 154 160 161 162 163 164 165 166 173 174 176 177 178 191 192
1 2 3 4 5 6 7 8 9 10 11 12 14 15 16 34 39 40 41 42 43 44 45 46 47 48 49 50 51 52 53 54 55 56 57 59 60 65 67 68 71 74 75 80 121 125 126 127 128 129 130 131 135 136 137 138 139 145 147 149 150 151 153 154 160 161 162 163 164 165 166 173 174 176 177 178 191 192
1 2 3 4 5 6 7 8 9 10 11 12 13 15 16 34 39 40 41 42 43 44 45 46 47 48 49 50 51 52 53 54 55 56 57 59 60 62 65 67 68 71 74 75 80 121 125 126 127 128 129 130 131 135 136 137 138 139 145 147 149 150 151 153 154 160 161 162 163 164 165 166 173 174 176 177 178 191 192
1 2 3 4 5 6 7 8 9 10 11 12 13 14 16 34 47 48 49 50 51 52 53 54 55 65 67 68 71 74 75 80 121 125 126 127 128 129 130 131 135 136 137 138 139 145 147 149 150 151 153 154 160 161 162 163 164 165 166 173 174 176 177 178 191 192
1 2 3 4 5 6 7 8 9 10 11 12 13 14 15 34 39 40 41 42 43 44 45 47 48 49 50 51 52 53 54 55 65 67 68 71 74 75 80 121 125 126 127 128 129 130 131 135 136 137 138 139 145 147 149 150 151 153 154 160 161 162 163 164 165 166 173 174 176 177 178 191 192
18 19 20 21 22 23 24 25 26 27 28 29 30 31 32 33 34 35 36 37 38 39 40 41 42 43 44 45 46 47 48 49 50 51 52 53 54 55 56 57 59 60 62 63 64 65 67 68 71 73 74 75 77 80 83 85 87 88 90 91 93 96 99 102 104 107 108 109 111 112 114 117 118 120 121 125 126 127 128 129 130 131 135 136 137 138 139 142 144 145 146 147 148 149 150 151 152 153 154 157 160 161 162 163 164 165 166 169 173 174 176 177 178 181 184 187 189 191 192 195 197
17 19 20 21 22 23 24 25 26 27 28 29 30 31 32 33 35 36 37 38 39 40 41 42 43 44 45 46 56 57 59 60 62 63 64 73 77 83 85 87 88 90 91 93 96 99 102 104 107 108 109 111 112 114 117 118 120 142 144 146 148 152 157 169 181 184 187 189 195 197
17 18 20 21 22 23 24 25 26 27 28 29 30 31 32 33 35 36 37 38 39 40 41 42 43 44 45 46 47 56 57 59 60 62 63 64 73 77 83 85 87 88 90 91 93 96 99 102 104 107 108 109 111 112 114 117 118 120 142 144 146 148 152 157 169 181 184 187 189 195 197
17 18 19 21 22 23 24 25 26 27 28 29 30 31 32 33 35 36 37 38 39 40 41 42 43 44 45 46 47 48 56 57 59 60 62 63 64 73 77 83 85 87 88 90 91 93 96 99 102 104 107 108 109 111 112 114 117 118 120 142 144 146 148 152 157 169 181 184 187 189 195 197
17 18 19 20 22 23 24 25 26 27 28 29 30 31 32 33 35 36 37 38 39 40 41 42 43 44 45 46 47 48 49 56 57 59 60 62 63 64 73 77 83 85 87 88 90 91 93 96 99 102 104 107 108 109 111 112 114 117 118 120 142 144 146 148 152 157 169 181 184 187 189 195 197
17 18 19 20 21 23 24 25 26 27 28 29 30 31 32 33 35 36 37 38 39 40 41 42 43 44 45 46 47 48 49 50 56 57 59 60 62 63 64 73 77 83 85 87 88 90 91 93 96 99 102 104 107 108 109 111 112 114 117 118 120 142 144 146 148 152 157 169 181 184 187 189 195 197
17 18 19 20 21 22 24 25 26 27 28 29 30 31 32 33 35 36 37 38 39 40 41 42 43 44 45 46 47 48 49 50 51 56 57 59 60 62 63 64 73 77 83 85 87 88 90 91 93 96 99 102 104 107 108 109 111 112 114 117 118 120 142 144 146 148 152 157 169 181 184 187 189 195 197
17 18 19 20 21 22 23 25 26 27 28 29 30 31 32 33 35 36 37 38 39 40 41 42 43 44 45 46 47 48 49 50 51 52 56 57 59 60 62 63 64 73 77 83 85 87 88 90 91 93 96 99 102 104 107 108 109 111 112 114 117 118 120 142 144 146 148 152 157 169 181 184 187 189 195 197
17 18 19 20 21 22 23 24 26 27 28 29 30 31 32 33 35 36 37 38 39 40 41 42 43 44 45 46 47 48 49 50 51 52 53 56 57 59 60 62 63 64 73 77 83 85 87 88 90 91 93 96 99 102 104 107 108 109 111 112 114 117 118 120 142 144 146 148 152 157 169 181 184 187 189 195 197
17 18 19 20 21 22 23 24 25 27 28 29 30 31 32 33 35 36 37 38 39 40 41 42 43 44 45 46 47 48 49 50 51 52 53 54 56 57 59 60 62 63 64 73 77 83 85 87 88 90 91 93 96 99 102 104 107 108 109 111 112 114 117 118 120 142 144 146 148 152 157 169 181 184 187 189 195 197
17 18 19 20 21 22 23 24 25 26 28 29 30 31 32 33 35 36 37 38 39 40 41 42 43 44 45 46 56 57 59 60 62 63 64 73 77 83 85 87 88 90 91 93 96 99 102 104 107 108 109 111 112 114 117 118 120 142 144 146 148 152 157 169 181 184 187 189 195 197
17 18 19 20 21 22 23 24 25 26 27 29 30 31 32 33 35 36 37 38 39 40 41 42 43 44 45 46 56 57 59 60 62 63 64 73 77 83 85 87 88 90 91 93 96 99 102 104 107 108 109 111 112 114 117 118 120 142 144 146 148 152 157 169 181 184 187 189 195 197
17 18 19 20 21 22 23 24 25 26 27 28 30 31 32 33 35 36 37 38 39 40 41 42 43 44 45 46 56 57 59 60 62 63 64 73 77 83 85 87 88 90 91 93 96 99 102 104 107 108 109 111 112 114 117 118 120 142 144 146 148 152 157 169 181 184 187 189 195 197
17 18 19 20 21 22 23 24 25 26 27 28 29 31 32 33 35 36 37 38 39 40 41 42 43 44 45 46 56 57 59 60 62 63 64 73 77 83 85 87 88 90 91 93 96 99 102 104 107 108 109 111 112 114 117 118 120 142 144 146 148 152 157 169 181 184 187 189 195 197
17 18 19 20 21 22 23 24 25 26 27 28 29 30 32 33 35 36 37 38 39 40 41 42 43 44 45 46 56 57 59 60 62 63 64 73 77 83 85 87 88 90 91 93 96 99 102 104 107 108 109 111 112 114 117 118 120 142 144 146 148 152 157 169 181 184 187 189 195 197
17 18 19 20 21 22 23 24 25 26 27 28 29 30 31 33 35 36 37 38 39 40 41 42 43 44 45 46 56 57 59 60 62 63 64 73 77 83 85 87 88 90 91 93 96 99 102 104 107 108 109 111 112 114 117 118 120 142 144 146 148 152 157 169 181 184 187 189 195 197
1 2 17 18 19 20 21 22 23 24 25 26 27 28 29 30 31 32 35 36 37 39 40 41 42 43 44 45 46 56 57 59 60 62 63 64 83 85 87 88 91 99 104 107 111 112 114 117 118 120 142 144 146 148 152 157 169 181
1 2 3 4 5 6 7 8 9 10 11 12 13 14 15 16 17 47 48 49 50 51 52 53 54 55 65 67 71 74 75 80 131 135
1 2 17 18 19 20 21 22 23 24 25 26 27 28 29 30 31 32 33 39 40 41 42 43 44 45 46 56 57 59 60 62 63 64 83 85 87 88 91 99 104 107 111 112 114 117 118 120 144 146 148 152 157
1 2 17 18 19 20 21 22 23 24 25 26 27 28 29 30 31 32 33 39 40 41 42 43 44 45 46 56 57 59 60 62 63 64 83 85 87 88 91 99 104 107 111 112 114 117 118 120 181
1 2 17 18 19 20 21 22 23 24 25 26 27 28 29 30 31 32 33 39 40 41 42 43 44 45 46 56 57 59 60 62 63 64 83 85 87 88 91 99 104 107 111 112 114 117 118 120 169
1 2 17 18 19 20 21 22 23 24 25 26 27 28 29 30 31 32 39 40 41 42 43 44 45 46 56 57 59 60 187 189 195
1 2 3 5 6 7 8 9 10 11 12 13 14 16 17 18 19 20 21 22 23 24 25 26 27 28 29 30 31 32 33 35 36 37 38 40 41 42 43 44 45 46 56 57 59 60 62 63 64 73 77 83 85 87 88 90 91 93 96 99 102 104 107 108 109 111 112 114 117 118 120 142 144 146 148 152 157 169 181 184 187 189 195 197
1 2 3 6 7 8 9 10 11 12 13 14 16 17 18 19 20 21 22 23 24 25 26 27 28 29 30 31 32 33 35 36 37 38 39 41 42 43 44 45 46 56 57 59 60 62 63 64 73 77 83 85 87 88 90 91 93 96 99 102 104 107 108 109 111 112 114 117 118 120 142 144 146 148 152 157 169 181 184 187 189 195 197
1 2 3 7 8 9 10 11 12 13 14 16 17 18 19 20 21 22 23 24 25 26 27 28 29 30 31 32 33 35 36 37 38 39 40 42 43 44 45 46 56 57 59 60 62 63 64 73 77 83 85 87 88 90 91 93 96 99 102 104 107 108 109 111 112 114 117 118 120 142 144 146 148 152 157 169 181 184 187 189 195 197
1 2 3 8 9 10 11 12 13 14 16 17 18 19 20 21 22 23 24 25 26 27 28 29 30 31 32 33 35 36 37 38 39 40 41 43 44 45 46 56 57 59 60 62 63 64 73 77 83 85 87 88 90 91 93 96 99 102 104 107 108 109 111 112 114 117 118 120 142 144 146 148 152 157 169 181 184 187 189 195 197
1 2 3 9 10 11 12 13 14 16 17 18 19 20 21 22 23 24 25 26 27 28 29 30 31 32 33 35 36 37 38 39 40 41 42 44 45 46 56 57 59 60 62 63 64 73 77 83 85 87 88 90 91 93 96 99 102 104 107 108 109 111 112 114 117 118 120 142 144 146 148 152 157 169 181 184 187 189 195 197
1 2 3 10 11 12 13 14 16 17 18 19 20 21 22 23 24 25 26 27 28 29 30 31 32 33 35 36 37 38 39 40 41 42 43 45 46 56 57 59 60 62 63 64 73 77 83 85 87 88 90 91 93 96 99 102 104 107 108 109 111 112 114 117 118 120 142 144 146 148 152 157 169 181 184 187 189 195 197
1 2 3 11 12 13 14 16 17 18 19 20 21 22 23 24 25 26 27 28 29 30 31 32 33 35 36 37 38 39 40 41 42 43 44 46 56 57 59 60 62 63 64 73 77 83 85 87 88 90 91 93 96 99 102 104 107 108 109 111 112 114 117 118 120 142 144 146 148 152 157 169 181 184 187 189 195 197
1 2 3 11 12 13 14 17 18 19 20 21 22 23 24 25 26 27 28 29 30 31 32 33 35 36 37 38 39 40 41 42 43 44 45 56 57 59 60 62 63 64 73 77 83 85 87 88 90 91 93 96 99 102 104 107 108 109 111 112 114 117 118 120 142 144 146 148 152 157 169 181 184 187 189 195 197
1 2 3 4 5 6 7 8 9 10 11 12 13 14 15 16 17 19 20 21 22 23 24 25 26 34 48 49 50 51 52 53 54 55 65 67 68 71 74 75 80 121 125 126 127 128 129 130 131 135 136 137 138 139 145 147 149 150 151 153 154 160 161 162 163 164 165 166 173 174 176 177 178 191 192
1 2 3 4 5 6 7 8 9 10 11 12 13 14 15 16 17 20 21 22 23 24 25 26 34 47 49 50 51 52 53 54 55 65 67 68 71 74 75 80 121 125 126 127 128 129 130 131 135 136 137 138 139 145 147 149 150 151 153 154 160 161 162 163 164 165 166 173 174 176 177 178 191 192
1 2 3 4 5 6 7 8 9 10 11 12 13 14 15 16 17 21 22 23 24 25 26 34 47 48 50 51 52 53 54 55 65 67 68 71 74 75 80 121 125 126 127 128 129 130 131 135 136 137 138 139 145 147 149 150 151 153 154 160 161 162 163 164 165 166 173 174 176 177 178 191 192
1 2 3 4 5 6 7 8 9 10 11 12 13 14 15 16 17 22 23 24 25 26 34 47 48 49 51 52 53 54 55 65 67 68 71 74 75 80 121 125 126 127 128 129 130 131 135 136 137 138 139 145 147 149 150 151 153 154 160 161 162 163 164 165 166 173 174 176 177 178 191 192
1 2 3 4 5 6 7 8 9 10 11 12 13 14 15 16 17 23 24 25 26 34 47 48 49 50 52 53 54 55 65 67 68 71 74 75 80 121 125 126 127 128 129 130 131 135 136 137 138 139 145 147 149 150 151 153 154 160 161 162 163 164 165 166 173 174 176 177 178 191 192
1 2 3 4 5 6 7 8 9 10 11 12 13 14 15 16 17 24 25 26 34 47 48 49 50 51 53 54 55 65 67 68 71 74 75 80 121 125 126 127 128 129 130 131 135 136 137 138 139 145 147 149 150 151 153 154 160 161 162 163 164 165 166 173 174 176 177 178 191 192
1 2 3 4 5 6 7 8 9 10 11 12 13 14 15 16 17 25 26 34 47 48 49 50 51 52 54 55 65 67 68 71 74 75 80 121 125 126 127 128 129 130 131 135 136 137 138 139 145 147 149 150 151 153 154 160 161 162 163 164 165 166 173 174 176 177 178 191 192
1 2 3 4 5 6 7 8 9 10 11 12 13 14 15 16 17 26 34 47 48 49 50 51 52 53 55 65 67 68 71 74 75 80 121 125 126 127 128 129 130 131 135 136 137 138 139 145 147 149 150 151 153 154 160 161 162 163 164 165 166 173 174 176 177 178 191 192
1 2 3 4 5 6 7 8 9 10 11 12 13 14 15 16 17 34 47 48 49 50 51 52 53 54 65 67 68 71 74 75 80 121 125 126 127 128 129 130 131 135 136 137 138 139 145 147 149 150 151 153 154 160 161 162 163 164 165 166 173 174 176 177 178 191 192
1 2 3 12 13 14 17 18 19 20 21 22 23 24 25 26 27 28 29 30 31 32 33 35 36 37 38 39 40 41 42 43 44 45 46 57 59 60 62 63 64 73 77 83 85 87 88 90 91 93 96 99 102 104 107 108 109 111 112 114 117 118 120 142 144 146 148 152 157 169 181 184 187 189 195 197
1 2 3 12 13 14 17 18 19 20 21 22 23 24 25 26 27 28 29 30 31 32 33 35 36 37 38 39 40 41 42 43 44 45 46 56 59 60 62 63 64 73 77 83 85 87 88 90 91 93 96 99 102 104 107 108 109 111 112 114 117 118 120 142 144 146 148 152 157 169 181 184 187 189 195 197

1 2 3 13 14 17 18 19 20 21 22 23 24 25 26 27 28 29 30 31 32 33 35 36 37 38 39 40 41 42 43 44 45 46 56 57 60 62 63 64 73 77 83 85 87 88 90 91 93 96 99 102 104 107 108 109 111 112 114 117 118 120 142 144 146 148 152 157 169 181 184 187 189 195 197
1 2 3 13 14 17 18 19 20 21 22 23 24 25 26 27 28 29 30 31 32 33 35 36 37 38 39 40 41 42 43 44 45 46 56 57 59 62 63 64 73 77 83 85 87 88 90 91 93 96 99 102 104 107 108 109 111 112 114 117 118 120 142 144 146 148 152 157 169 181 184 187 189 195 197

1 2 3 14 17 18 19 20 21 22 23 24 25 26 27 28 29 30 31 32 33 35 36 37 39 40 41 42 43 44 45 46 56 57 59 60 63 64 73 77 83 85 87 88 90 91 93 96 99 102 104 107 108 109 111 112 114 117 118 120 142 144 146 148 152 157 169 181 184 187 197
1 2 3 17 18 19 20 21 22 23 24 25 26 27 28 29 30 31 32 33 35 36 37 39 40 41 42 43 44 45 46 56 57 59 60 62 64 73 77 83 85 87 88 90 91 93 96 99 102 104 107 108 109 111 112 114 117 118 120 142 144 146 148 152 157 169 181
1 2 3 17 18 19 20 21 22 23 24 25 26 27 28 29 30 31 32 33 35 36 37 39 40 41 42 43 44 45 46 56 57 59 60 62 63 73 77 83 85 87 88 90 91 93 96 99 102 104 107 108 109 111 112 114 117 118 120 142 144 146 148 152 157 169 181
1 2 3 4 5 6 7 8 9 10 11 12 13 14 15 16 17 34 47 48 49 50 51 52 53 54 55 67 68 71 74 75 80 121 125 126 127 128 129 130 131 135 136 137 138 139 145 147 149 150 151 153 154 160 161 162 163 164 165 166 173 174 176 177 178

1 2 3 4 5 6 7 8 9 10 11 12 13 14 15 16 17 34 47 48 49 50 51 52 53 54 55 65 68 71 74 75 80 121 125 126 127 128 129 130 131 135 136 137 138 139 145 147 149 150 151 153 154 160 161 162 163 164 165 166 173 174 176 177 178
1 2 3 4 5 6 7 8 9 10 11 12 13 14 15 16 17 47 48 49 50 51 52 53 54 55 65 67


1 2 3 4 5 6 7 8 9 10 11 12 13 14 15 16 17 34 47 48 49 50 51 52 53 54 55 65 67 74 75 80 121 125 126 127 128 129 130 131 135 136 137 138 139 145 147 149 150 151 153 154 160 161 162 163 164 165 166 173 174 176 177 178

1 2 17 18 19 20 21 22 23 24 25 26 27 28 29 30 31 32 39 40 41 42 43 44 45 46 56 57 59 60 62 63 64 77 83 85 87 88 90 91 93 96 99 102 104 107 108 109 111 112 114 117 118 120
1 2 3 4 5 6 7 8 9 10 11 12 13 14 15 16 17 34 47 48 49 50 51 52 53 54 55 65 67 71 75 80 121 125 126 127 128 129 130 131 135 136 137 138 139 145 147 149 150 151 153 154 160 161 162 163 164 165 166 173 174 176 177 178
1 2 3 4 5 6 7 8 9 10 11 12 13 14 15 16 17 34 47 48 49 50 51 52 53 54 55 65 67 71 74 80 121 125 126 127 128 129 130 131 135 136 137 138 139 145 147 149 150 151 153 154 160 161 162 163 164 165 166 173 174 176 177 178

1 2 17 18 19 20 21 22 23 24 25 26 27 28 29 30 31 32 39 40 41 42 43 44 45 46 56 57 59 60 62 63 64 73


1 2 3 4 5 6 7 8 9 10 11 12 13 14 15 16 17 34 47 48 49 50 51 52 53 54 55 65 67 71 74 75 121 125 126 127 128 129 130 131 135 136 137 138 139 145 147 149 150 151 153 154 160 161 162 163 164 165 166 173 174 176 177 178


1 2 17 18 19 20 21 22 23 24 25 26 27 28 29 30 31 32 33 35 36 37 39 40 41 42 43 44 45 46 56 57 59 60 62 63 64 73 85 87 88 90 91 93 96 99 102 104 107 108 109 111 112 114 117 118 120 142 144 146 148 152 157 169 181

1 2 17 18 19 20 21 22 23 24 25 26 27 28 29 30 31 32 33 35 36 37 39 40 41 42 43 44 45 46 56 57 59 60 62 63 64 73 83 87 88 90 91 93 96 99 102 104 107 108 109 111 112 114 117 118 120 142 144 146 148 152 157 169 181

1 2 17 18 19 20 21 22 23 24 25 26 27 28 29 30 31 32 33 35 36 37 39 40 41 42 43 44 45 46 56 57 59 60 62 63 64 73 83 85 88 90 91 93 96 99 102 104 107 108 109 111 112 114 117 118 120 142 144 146 148 152 157 169 181
1 2 17 18 19 20 21 22 23 24 25 26 27 28 29 30 31 32 33 35 36 37 39 40 41 42 43 44 45 46 56 57 59 60 62 63 64 73 83 85 87 90 91 93 96 99 102 104 107 108 109 111 112 114 117 118 120 142 144 146 148 152 157 169 181

1 2 17 18 19 20 21 22 23 24 25 26 27 28 29 30 31 32 39 40 41 42 43 44 45 46 56 57 59 60 62 63 64 73 83 85 87 88
1 2 17 18 19 20 21 22 23 24 25 26 27 28 29 30 31 32 33 35 36 37 39 40 41 42 43 44 45 46 56 57 59 60 62 63 64 73 83 85 87 88 93 96 99 102 104 107 108 109 111 112 114 117 118 120 142 144 146 148 152 157 169 181

1 2 17 18 19 20 21 22 23 24 25 26 27 28 29 30 31 32 39 40 41 42 43 44 45 46 56 57 59 60 62 63 64 73 83 85 87 88 91 96 99 102 104 107 108


1 2 17 18 19 20 21 22 23 24 25 26 27 28 29 30 31 32 39 40 41 42 43 44 45 46 56 57 59 60 62 63 64 73 83 85 87 88 91 93 99 102 104 107 108 109 111


1 2 17 18 19 20 21 22 23 24 25 26 27 28 29 30 31 32 33 35 36 37 39 40 41 42 43 44 45 46 56 57 59 60 62 63 64 73 83 85 87 88 91 93 96 102 104 107 108 109 111 112 114 117 118 120 142 144 146 148 152 157 169 181


1 2 17 18 19 20 21 22 23 24 25 26 27 28 29 30 31 32 39 40 41 42 43 44 45 46 56 57 59 60 62 63 64 73 83 85 87 88 91 93 96 99 104 107

1 2 17 18 19 20 21 22 23 24 25 26 27 28 29 30 31 32 33 35 36 37 39 40 41 42 43 44 45 46 56 57 59 60 62 63 64 73 83 85 87 88 91 93 96 99 102 107 108 109 111 112 114 117 118 120 142 144 146 148 152 157 169 181


1 2 17 18 19 20 21 22 23 24 25 26 27 28 29 30 31 32 33 35 36 37 39 40 41 42 43 44 45 46 56 57 59 60 62 63 64 73 83 85 87 88 91 93 96 99 102 104 108 109 111 112 114 117 118 120 142 144 146 148 152 157 169 181
1 2 17 18 19 20 21 22 23 24 25 26 27 28 29 30 31 32 39 40 41 42 43 44 45 46 56 57 59 60 62 63 64 73 83 85 87 88 91 93 96 99 104 107 109 111 112 114
1 2 17 18 19 20 21 22 23 24 25 26 27 28 29 30 31 32 39 40 41 42 43 44 45 46 56 57 59 60 62 63 64 73 83 85 87 88 91 96 99 104 107 108 111 112 114 117 118

1 2 17 18 19 20 21 22 23 24 25 26 27 28 29 30 31 32 33 35 36 37 39 40 41 42 43 44 45 46 56 57 59 60 62 63 64 73 83 85 87 88 91 96 99 104 107 108 109 112 114 117 118 120 142 144 146 148 152 157 169 181
1 2 17 18 19 20 21 22 23 24 25 26 27 28 29 30 31 32 33 35 36 37 39 40 41 42 43 44 45 46 56 57 59 60 62 63 64 73 83 85 87 88 91 99 104 107 108 109 111 114 117 118 120 142 144 146 148 152 157 169 181

1 2 17 18 19 20 21 22 23 24 25 26 27 28 29 30 31 32 33 35 36 37 39 40 41 42 43 44 45 46 56 57 59 60 62 63 64 73 83 85 87 88 91 99 104 107 108 109 111 112 117 118 120 142 144 146 148 152 157 169 181


1 2 17 18 19 20 21 22 23 24 25 26 27 28 29 30 31 32 33 35 36 37 39 40 41 42 43 44 45 46 56 57 59 60 62 63 64 73 83 85 87 88 91 99 104 107 109 111 112 114 118 120 142 144 146 148 152 157 169 181
1 2 17 18 19 20 21 22 23 24 25 26 27 28 29 30 31 32 33 35 36 37 39 40 41 42 43 44 45 46 56 57 59 60 62 63 64 73 83 85 87 88 91 99 104 107 109 111 112 114 117 120 142 144 146 148 152 157 169 181

1 2 17 18 19 20 21 22 23 24 25 26 27 28 29 30 31 32 33 35 36 37 39 40 41 42 43 44 45 46 56 57 59 60 62 63 64 73 83 85 87 88 91 99 104 107 111 112 114 117 118 142 144 146 148 152 157 169 181
1 2 3 4 5 6 7 8 9 10 11 12 13 14 15 16 17 47 48 49 50 51 52 53 54 55 65 67 71 74 75 80



1 2 3 4 5 6 7 8 9 10 11 12 13 14 15 16 17 47 48 49 50 51 52 53 54 55 65 67 71 74 75 80
1 2 3 4 5 6 7 8 9 10 11 12 13 14 15 16 17 47 48 49 50 51 52 53 54 55 65 67 71 74 75 80
1 2 3 4 5 6 7 8 9 10 11 12 13 14 15 16 17 47 48 49 50 51 52 53 54 55 65 67 71 74 75 80
1 2 3 4 5 6 7 8 9 10 11 12 13 14 15 16 17 47 48 49 50 51 52 53 54 55 65 67 71 74 75 80
1 2 3 4 5 6 7 8 9 10 11 12 13 14 15 16 17 47 48 49 50 51 52 53 54 55 65 67 71 74 75 80
1 2 3 4 5 6 7 8 9 10 11 12 13 14 15 16 17 47 48 49 50 51 52 53 54 55 65 67 71 74 75 80
1 2 3 4 5 6 7 8 9 10 11 12 13 14 15 16 17 34 47 48 49 50 51 52 53 54 55 65 67 71 74 75 80 173 174 176 177 178



1 2 3 4 5 6 7 8 9 10 11 12 13 14 15 16 17 34 47 48 49 50 51 52 53 54 55 65 67 71 74 75 80
1 2 3 4 5 6 7 8 9 10 11 12 13 14 15 16 17 47 48 49 50 51 52 53 54 55 65 67 71 74 75 80
1 2 3 4 5 6 7 8 9 10 11 12 13 14 15 16 17 47 48 49 50 51 52 53 54 55 65 67 71 74 75 80 138
1 2 3 4 5 6 7 8 9 10 11 12 13 14 15 16 17 47 48 49 50 51 52 53 54 55 65 67 71 74 75 80 137
1 2 3 4 5 6 7 8 9 10 11 12 13 14 15 16 17 47 48 49 50 51 52 53 54 55 65 67 71 74 75 80


1 2 17 18 19 20 21 22 23 24 25 26 27 28 29 30 31 32 33 39 40 41 42 43 44 45 46 56 57 59 60 62 63 64 83 85 87 88 91 99 104 107 111 112 114 117 118 120

1 2 17 18 19 20 21 22 23 24 25 26 27 28 29 30 31 32 33 35 39 40 41 42 43 44 45 46 56 57 59 60 62 63 64 83 85 87 88 91 99 104 107 111 112 114 117 118 120 146 148 152
1 2 3 4 5 6 7 8 9 10 11 12 13 14 15 16 17 47 48 49 50 51 52 53 54 55 65 67 71 74 75 80 147 149 150
1 2 17 18 19 20 21 22 23 24 25 26 27 28 29 30 31 32 33 35 39 40 41 42 43 44 45 46 56 57 59 60 62 63 64 83 85 87 88 91 99 104 107 111 112 114 117 118 120 144
1 2 3 4 5 6 7 8 9 10 11 12 13 14 15 16 17 47 48 49 50 51 52 53 54 55 65 67 71 74 75 80 145 149
1 2 17 18 19 20 21 22 23 24 25 26 27 28 29 30 31 32 33 35 39 40 41 42 43 44 45 46 56 57 59 60 62 63 64 83 85 87 88 91 99 104 107 111 112 114 117 118 120 144
1 2 3 4 5 6 7 8 9 10 11 12 13 14 15 16 17 47 48 49 50 51 52 53 54 55 65 67 71 74 75 80 145 147
1 2 3 4 5 6 7 8 9 10 11 12 13 14 15 16 17 47 48 49 50 51 52 53 54 55 65 67 71 74 75 80 145
1 2 3 4 5 6 7 8 9 10 11 12 13 14 15 16 17 47 48 49 50 51 52 53 54 55 65 67 71 74 75 80 153
1 2 17 18 19 20 21 22 23 24 25 26 27 28 29 30 31 32 33 35 39 40 41 42 43 44 45 46 56 57 59 60 62 63 64 83 85 87 88 91 99 104 107 111 112 114 117 118 120 144
1 2 3 4 5 6 7 8 9 10 11 12 13 14 15 16 17 47 48 49 50 51 52 53 54 55 65 67 71 74 75 80 151
1 2 3 4 5 6 7 8 9 10 11 12 13 14 15 16 17 47 48 49 50 51 52 53 54 55 65 67 71 74 75 80


1 2 17 18 19 20 21 22 23 24 25 26 27 28 29 30 31 32 33 35 39 40 41 42 43 44 45 46 56 57 59 60 62 63 64 83 85 87 88 91 99 104 107 111 112 114 117 118 120


1 2 3 4 5 6 7 8 9 10 11 12 13 14 15 16 17 47 48 49 50 51 52 53 54 55 65 67 71 74 75 80 161 162 163
1 2 3 4 5 6 7 8 9 10 11 12 13 14 15 16 17 47 48 49 50 51 52 53 54 55 65 67 71 74 75 80 160 162
1 2 3 4 5 6 7 8 9 10 11 12 13 14 15 16 17 47 48 49 50 51 52 53 54 55 65 67 71 74 75 80 160 161
1 2 3 4 5 6 7 8 9 10 11 12 13 14 15 16 17 47 48 49 50 51 52 53 54 55 65 67 71 74 75 80 160
1 2 3 4 5 6 7 8 9 10 11 12 13 14 15 16 17 47 48 49 50 51 52 53 54 55 65 67 71 74 75 80 165
1 2 3 4 5 6 7 8 9 10 11 12 13 14 15 16 17 47 48 49 50 51 52 53 54 55 65 67 71 74 75 80 164
1 2 3 4 5 6 7 8 9 10 11 12 13 14 15 16 17 47 48 49 50 51 52 53 54 55 65 67 71 74 75 80


1 2 17 18 19 20 21 22 23 24 25 26 27 28 29 30 31 32 33 37 39 40 41 42 43 44 45 46 56 57 59 60 62 63 64 83 85 87 88 91 99 104 107 111 112 114 117 118 120



1 2 3 4 5 6 7 8 9 10 11 12 13 14 15 16 17 47 48 49 50 51 52 53 54 55 65 67 71 74 75 80 131
1 2 3 4 5 6 7 8 9 10 11 12 13 14 15 16 17 47 48 49 50 51 52 53 54 55 65 67 71 74 75 80 131

1 2 3 4 5 6 7 8 9 10 11 12 13 14 15 16 17 47 48 49 50 51 52 53 54 55 65 67 71 74 75 80 131
1 2 3 4 5 6 7 8 9 10 11 12 13 14 15 16 17 47 48 49 50 51 52 53 54 55 65 67 71 74 75 80 131
1 2 3 4 5 6 7 8 9 10 11 12 13 14 15 16 17 47 48 49 50 51 52 53 54 55 65 67 71 74 75 80 131


1 2 17 18 19 20 21 22 23 24 25 26 27 28 29 30 31 32 33 36 39 40 41 42 43 44 45 46 56 57 59 60 62 63 64 83 85 87 88 91 99 104 107 111 112 114 117 118 120


1 2 17 18 19 20 21 22 23 24 25 26 27 28 29 30 31 32 39 40 41 42 43 44 45 46 56 57 59 60 62 187 189


1 2 17 18 19 20 21 22 23 24 25 26 27 28 29 30 31 32 38 39 40 41 42 43 44 45 46 56 57 59 60 62 184 189 195

1 2 17 18 19 20 21 22 23 24 25 26 27 28 29 30 31 32 38 39 40 41 42 43 44 45 46 56 57 59 60 184 187 195

1 2 3 4 5 6 7 8 9 10 11 12 13 14 15 16 17 47 48 49 50 51 52 53 54 55
1 2 3 4 5 6 7 8 9 10 11 12 13 14 15 16 17 47 48 49 50 51 52 53 54 55


1 2 17 18 19 20 21 22 23 24 25 26 27 28 29 30 31 32 38 39 40 41 42 43 44 45 46 56 57 59 60 187 189

1 2 17 18 19 20 21 22 23 24 25 26 27 28 29 30 31 32 39 40 41 42 43 44 45 46 56 57 59 60 62
